CMD:
./solvers/bin/cadical --plain --no-reduce -t 1600 ./data/cnfs//intel047/intel047.10.cnf

c --- [ banner ] -------------------------------------------------------------
c 
c CaDiCaL SAT Solver
c Copyright (c) 2016-2024
c A. Biere, M. Fleury, N. Froleyks, K. Fazekas, F. Pollitt, T. Faller
c JKU Linz, University of Freiburg, TU Wien
c 
c Version 2.1.3 5296d3d2a9bf48c154ab2acb5e44625776d821bf
c g++ (Gentoo 12.3.1_p20230526 p2) 12.3.1 20230526 -Wall -Wextra -O3 -DNDEBUG
c Sat Aug 9 07:26:21 PDT 2025 Linux cedar2.int.cedar.computecanada.ca 5.14.0-362.24.2.el9_3.x86_64 x86_64
c 
c --- [ limit ] --------------------------------------------------------------
c 
c setting time limit to 1600 seconds real time (due to '-t 1600')
c 
c --- [ parsing input ] ------------------------------------------------------
c 
c reading DIMACS file from './data/cnfs//intel047/intel047.10.cnf'
c opening file to read './data/cnfs//intel047/intel047.10.cnf'
c found 'p cnf 71872 193103' header
c parsed 193103 clauses in 0.03 seconds process time
c 
c --- [ options ] ------------------------------------------------------------
c 
c   --compact=false                (different from default 'true')
c   --decompose=false              (different from default 'true')
c   --deduplicate=false            (different from default 'true')
c   --elim=false                   (different from default 'true')
c   --probe=false                  (different from default 'true')
c   --reduce=false                 (different from default 'true')
c   --subsume=false                (different from default 'true')
c   --ternary=false                (different from default 'true')
c   --transred=false               (different from default 'true')
c   --vivify=false                 (different from default 'true')
c 
c --- [ solving ] ------------------------------------------------------------
c 
c time measured in process time since initialization
c 
c  seconds  reductions  redundant  irredundant
c         MB    restarts       trail       variables
c          level   conflicts       glue         remaining
c 
c *  0.03 34  0 0   0    0    0  0% 0 189112 43338 60%
c {  0.04 35  0 0   0    0    0  0% 0 189112 43338 60%
c i  0.04 35 461 0   0   67   57 50% 3 189112 43286 60%
c i  0.04 35 460 0   0   77   65 50% 2 189112 43285 60%
c i  0.04 35 466 0   0   78   65 50% 2 189112 43284 60%
c i  0.05 35 568 0   0  129  111 56% 3 189112 43283 60%
c i  0.05 35 577 0   0  130  111 56% 3 189112 43282 60%
c i  0.06 35 554 0   7  312  260 57% 3 189112 43182 60%
c i  0.06 35 512 0   7  336  277 56% 3 189112 43168 60%
c i  0.06 35 427 0   7  398  332 55% 2 189112 43093 60%
c i  0.06 35 364 0   9  482  395 54% 3 189112 43063 60%
c i  0.07 35 283 0  22  629  513 52% 3 189112 42634 59%
c i  0.07 35 282 0  22  633  515 52% 3 189112 40578 56%
c i  0.07 35 278 0  22  642  516 52% 3 189112 40564 56%
c }  0.07 35 275 0  22  650  520 52% 3 189112 37100 52%
c 0  0.07 35 275 0  22  650  520 52% 3 189112 37100 52%
c 
c --- [ result ] -------------------------------------------------------------
c 
s UNSATISFIABLE
c 
c --- [ run-time profiling ] -------------------------------------------------
c 
c process time taken by individual solving procedures
c (percentage relative to process time for solving)
c 
c         0.04   99.58% search
c         0.03   95.13% parse
c         0.03   91.85% unstable
c         0.00    7.68% lucky
c         0.00    0.00% simplify
c   =================================
c         0.04   50.90% solve
c 
c last line shows process time for solving
c (percentage relative to total process time)
c 
c --- [ statistics ] ---------------------------------------------------------
c 
c chronological:               382        58.77 %  of conflicts
c conflicts:                   650     18259.45    per second
c decisions:                  9723    273133.32    per second
c fixed:                     34772        48.38 %  of all variables
c learned:                     573        88.15 %  per conflict
c learned_lits:               4455       100.00 %  learned literals
c minimized:                     0         0.00 %  learned literals
c shrunken:                    889        19.96 %  learned literals
c minishrunken:                420         9.43 %  learned literals
c otfs:                         23         3.54 %  of conflict
c propagations:             669292        18.80 M  per second
c restarts:                     22        29.55    interval
c subsumed:                     39         0.02 %  of all clauses
c strengthened:                 23         0.01 %  of all clauses
c 
c seconds are measured in process time for solving
c 
c --- [ resources ] ----------------------------------------------------------
c 
c total process time since initialization:         0.07    seconds
c total real time since initialization:            0.07    seconds
c maximum resident set size of process:           33.90    MB
c 
c --- [ shutting down ] ------------------------------------------------------
c 
c exit 20
